<number of tasks>
50

<cycle time>
1000

<order strength>
0.598


<task times>
1 443
2 627
3 505
4 480
5 719
6 464
7 513
8 367
9 520
10 531
11 482
12 399
13 529
14 560
15 361
16 654
17 464
18 665
19 558
20 471
21 522
22 444
23 263
24 675
25 441
26 642
27 455
28 539
29 421
30 366
31 350
32 532
33 709
34 714
35 408
36 580
37 516
38 531
39 508
40 436
41 528
42 508
43 587
44 578
45 457
46 395
47 773
48 510
49 355
50 197

<precedence relations>
1,4
2,4
2,5
2,7
3,6
3,21
4,11
4,15
4,27
5,10
6,8
6,9
7,8
7,9
7,10
8,13
8,29
9,14
9,16
9,25
10,15
11,12
12,16
12,17
13,16
14,18
14,19
15,17
16,22
17,20
17,21
17,22
18,22
19,20
19,23
20,24
20,28
21,25
21,29
22,26
22,30
23,27
23,29
24,31
24,32
26,32
26,34
27,43
27,44
28,44
29,46
30,33
30,45
31,35
32,37
32,38
32,40
33,36
33,37
33,40
33,44
34,35
34,39
34,43
36,42
38,44
39,45
39,46
40,41
40,43
41,50
42,48
43,47
43,49
44,50

<end>
